NAME : N60ft208.dat.11726.tour
COMMENT : Length = 11726
COMMENT : Found by LKH [Keld Helsgaun] Sat Nov 11 16:42:00 2017
TYPE : TOUR
DIMENSION : 60
TOUR_SECTION
1
10
23
26
15
30
2
7
41
43
25
18
24
44
12
28
13
22
39
17
58
8
14
52
21
48
32
11
33
56
47
31
34
35
45
29
5
49
51
9
50
38
42
37
36
55
57
27
60
4
3
19
40
46
6
53
20
59
54
16
-1
EOF
